words_hard_train/1890.qaiger
aag 85 16 0 1 69
2
4
8
12
16
20
24
28
36
44
46
50
54
58
62
66
170
6 3 5
10 6 9
14 10 13
18 15 16
22 19 21
26 22 25
30 26 29
32 27 28
34 31 33
38 35 36
40 23 24
42 41 27
48 45 47
52 48 51
56 52 55
60 56 59
64 60 63
68 65 66
70 64 67
72 69 71
74 43 73
76 18 20
78 77 23
80 61 62
82 81 65
84 79 83
86 75 85
88 78 82
90 57 58
92 91 61
94 14 17
96 95 19
98 92 97
100 89 99
102 93 96
104 8 50
106 7 49
108 105 106
110 4 46
112 3 45
114 110 113
116 108 115
118 7 8
120 119 11
122 49 50
124 123 53
126 120 124
128 117 127
130 11 12
132 131 15
134 53 54
136 135 57
138 132 136
140 128 139
142 103 141
144 133 137
146 142 145
148 100 147
150 86 149
152 42 72
154 151 153
156 155 70
158 39 157
160 154 71
162 34 37
164 161 163
166 158 165
168 38 156
170 167 169
i0 1 x1[0]
i1 1 x1[1]
i2 1 x1[2]
i3 1 x1[3]
i4 1 x1[4]
i5 1 x1[5]
i6 1 x1[6]
i7 1 x1[7]
i8 2 y2[7]
i9 2 y2[0]
i10 2 y2[1]
i11 2 y2[2]
i12 2 y2[3]
i13 2 y2[4]
i14 2 y2[5]
i15 2 y2[6]
o0 bv[0]
c
simplified
  <=
    and
      2 y2
      2 y2
    subtract
      << 4
        1
      1 x1
