words_hard_train/1890.qaiger.qdimacs
p cnf 85 208
a 1 2 4 6 8 10 12 14 0
e 3 5 7 9 11 13 15 16 17 18 19 20 21 22 23 24 25 26 27 28 29 30 31 32 33 34 35 36 37 38 39 40 41 42 43 44 45 46 47 48 49 50 51 52 53 54 55 56 57 58 59 60 61 62 63 64 65 66 67 68 69 70 71 72 73 74 75 76 77 78 79 80 81 82 83 84 85 0
1 2 3 0
-1 -3 0
-2 -3 0
-3 4 5 0
3 -5 0
-4 -5 0
-5 6 7 0
5 -7 0
-6 -7 0
7 -8 9 0
-7 -9 0
8 -9 0
9 10 11 0
-9 -11 0
-10 -11 0
-11 12 13 0
11 -13 0
-12 -13 0
-13 14 15 0
13 -15 0
-14 -15 0
13 -14 16 0
-13 -16 0
14 -16 0
15 16 17 0
-15 -17 0
-16 -17 0
17 -18 19 0
-17 -19 0
18 -19 0
11 -12 20 0
-11 -20 0
12 -20 0
20 13 21 0
-20 -21 0
-13 -21 0
22 23 24 0
-22 -24 0
-23 -24 0
-24 25 26 0
24 -26 0
-25 -26 0
-26 27 28 0
26 -28 0
-27 -28 0
-28 29 30 0
28 -30 0
-29 -30 0
-30 31 32 0
30 -32 0
-31 -32 0
32 -33 34 0
-32 -34 0
33 -34 0
-32 33 35 0
32 -35 0
-33 -35 0
34 35 36 0
-34 -36 0
-35 -36 0
21 36 37 0
-21 -37 0
-36 -37 0
-9 -10 38 0
9 -38 0
10 -38 0
38 11 39 0
-38 -39 0
-11 -39 0
30 -31 40 0
-30 -40 0
31 -40 0
40 32 41 0
-40 -41 0
-32 -41 0
39 41 42 0
-39 -42 0
-41 -42 0
37 42 43 0
-37 -43 0
-42 -43 0
-39 -41 44 0
39 -44 0
41 -44 0
28 -29 45 0
-28 -45 0
29 -45 0
45 30 46 0
-45 -46 0
-30 -46 0
-7 8 47 0
7 -47 0
-8 -47 0
47 9 48 0
-47 -48 0
-9 -48 0
-46 48 49 0
46 -49 0
-48 -49 0
44 49 50 0
-44 -50 0
-49 -50 0
46 -48 51 0
-46 -51 0
48 -51 0
-4 -25 52 0
4 -52 0
25 -52 0
3 24 53 0
-3 -53 0
-24 -53 0
52 -53 54 0
-52 -54 0
53 -54 0
-2 -23 55 0
2 -55 0
23 -55 0
1 22 56 0
-1 -56 0
-22 -56 0
-55 56 57 0
55 -57 0
-56 -57 0
-54 57 58 0
54 -58 0
-57 -58 0
3 -4 59 0
-3 -59 0
4 -59 0
59 5 60 0
-59 -60 0
-5 -60 0
24 -25 61 0
-24 -61 0
25 -61 0
61 26 62 0
-61 -62 0
-26 -62 0
-60 -62 63 0
60 -63 0
62 -63 0
58 63 64 0
-58 -64 0
-63 -64 0
5 -6 65 0
-5 -65 0
6 -65 0
65 7 66 0
-65 -66 0
-7 -66 0
26 -27 67 0
-26 -67 0
27 -67 0
67 28 68 0
-67 -68 0
-28 -68 0
-66 -68 69 0
66 -69 0
68 -69 0
-64 69 70 0
64 -70 0
-69 -70 0
51 70 71 0
-51 -71 0
-70 -71 0
66 68 72 0
-66 -72 0
-68 -72 0
-71 72 73 0
71 -73 0
-72 -73 0
-50 73 74 0
50 -74 0
-73 -74 0
-43 74 75 0
43 -75 0
-74 -75 0
-21 -36 76 0
21 -76 0
36 -76 0
75 76 77 0
-75 -77 0
-76 -77 0
77 -35 78 0
-77 -78 0
35 -78 0
19 78 79 0
-19 -79 0
-78 -79 0
-77 35 80 0
77 -80 0
-35 -80 0
-17 18 81 0
17 -81 0
-18 -81 0
80 81 82 0
-80 -82 0
-81 -82 0
-79 82 83 0
79 -83 0
-82 -83 0
-19 -78 84 0
19 -84 0
78 -84 0
83 84 85 0
-83 -85 0
-84 -85 0
85 0
